(set-logic QF_S)
(declare-fun var0 () String)
(assert (str.in.re var0 (re.++ (re.* (re.+ (str.to.re "000"))) (re.++ (re.union (re.* (str.to.re "1")) (re.* (str.to.re "22"))) (re.++ (re.union (re.* (str.to.re "3")) (re.* (str.to.re "444"))) (re.++ (re.+ (re.union (str.to.re "55") (str.to.re "6"))) (re.++ (re.* (re.+ (str.to.re "77"))) (re.++ (re.+ (re.* (str.to.re "888"))) (re.++ (re.* (re.* (str.to.re "9"))) (re.++ (re.union (re.+ (str.to.re "a")) (re.+ (str.to.re "bbb"))) (re.++ (re.union (re.* (str.to.re "c")) (re.* (str.to.re "dd"))) (re.union (re.union (str.to.re "eee") (str.to.re "ff")) (re.union (str.to.re "g") (str.to.re "h"))))))))))))))
(assert (<= 376 (str.len var0)))
(check-sat)